Route 1: 0 81 70 80 89 9 28 85 47 0
Route 2: 0 32 100 76 36 59 7 3 16 57 17 72 0
Route 3: 0 91 94 8 71 30 23 54 86 31 41 0
Route 4: 0 10 19 60 15 12 2 58 37 62 69 38 25 0
Route 5: 0 64 1 44 99 52 45 0
Route 6: 0 5 20 97 56 35 39 40 0
Route 7: 0 83 93 65 77 26 67 0
Route 8: 0 79 51 50 61 42 63 0
Route 9: 0 87 48 21 55 49 33 0
Route 10: 0 82 4 88 74 29 73 27 46 0
Route 11: 0 13 68 22 98 96 14 95 0
Route 12: 0 18 84 24 75 11 43 0
Route 13: 0 66 34 78 92 53 90 0
Route 14: 0 6 0
